(set-logic LIA)
(synth-fun next ((brake Int) (distance Int) (speed Int) (throttle Int) (ignition Bool) (time Int) ) Int
	((Start Int) (Var Int) (StartBool Bool))
	((Start Int (
				 4
				 5
				 6
				 (ite StartBool Start Start)))

	(Var Int (
			 0
			 1
			 2
			 3
			 5
			 12
			 19
			 167
			 808
			 brake
			 distance
			 speed
			 throttle
			 time
			 (+ Var Var)						
			 (- Var Var)						
			 (* Var Var)))

	(StartBool Bool (
				 	 ignition
					(= Var Var)						
					(>= Var Var)						
					(<= Var Var)						
					(and StartBool StartBool)			
					(or  StartBool StartBool)				
					(not StartBool)))))

(constraint (= (next 0 0 0 0 true 771 ) 6))
(constraint (= (next 0 0 3 5 true 662 ) 4))
(constraint (= (next 0 8 34 3 true 990 ) 5))

(check-synth)
